304 5
10 10 10 10 10 

0 0 0 0 0 0 3 2 24 36 
0 0 0 0 0 0 2 3 5 
1 0 0 0 4 4 1 4 
3 0 0 0 6 9 2 8 6 
5 0 0 0 10 8 2 8 6 
10 0 0 0 8 7 1 7 
7 0 0 0 6 4 2 11 9 
1 0 0 0 7 7 2 11 9 
10 0 0 0 10 10 2 14 10 
2 0 0 0 5 6 1 12 
8 0 0 0 9 8 1 12 
1 0 0 0 5 10 1 13 
8 0 0 0 10 7 1 15 
4 0 0 0 8 10 1 15 
10 0 0 0 7 5 1 16 
2 0 0 0 6 10 1 17 
1 0 0 0 9 5 1 18 
6 0 0 0 10 8 2 21 19 
6 0 0 0 5 7 1 20 
5 0 0 0 7 10 1 22 
7 0 0 0 8 6 1 22 
4 0 0 0 10 9 1 23 
0 0 0 0 0 0 1 94 
0 0 0 0 0 0 2 25 26 
1 0 0 0 6 0 2 28 27 
8 0 0 0 4 0 2 34 28 
3 0 0 0 5 0 2 34 29 
7 0 0 0 9 0 1 29 
5 0 0 0 10 0 1 30 
1 0 0 0 4 0 1 31 
4 0 0 0 9 0 1 32 
7 0 0 0 10 0 1 33 
5 0 0 0 8 0 1 35 
1 0 0 0 10 0 1 35 
0 0 0 0 0 0 3 58 70 82 
0 0 0 0 0 0 3 37 45 46 
9 0 0 2 0 5 1 38 
1 0 0 10 0 10 1 39 
6 0 0 6 0 5 1 40 
1 0 0 6 0 7 1 41 
7 0 0 10 0 4 2 53 42 
5 0 0 6 0 10 1 43 
1 0 0 5 0 8 1 44 
5 0 0 10 0 9 2 55 47 
9 0 0 4 0 6 2 56 49 
1 0 0 8 0 10 2 55 49 
1 0 0 9 0 10 1 48 
7 0 0 9 0 10 1 49 
8 0 0 10 0 4 1 50 
1 0 0 6 0 7 1 51 
2 0 0 9 0 6 1 52 
1 0 0 9 0 10 1 54 
3 0 0 10 0 6 1 54 
2 0 0 10 0 10 1 57 
10 0 0 6 0 4 1 57 
7 0 0 5 0 9 1 57 
0 0 0 0 0 0 1 94 
0 0 0 0 0 0 3 59 67 68 
6 0 0 0 0 7 1 60 
10 0 0 0 0 4 1 61 
2 0 0 0 0 5 1 62 
9 0 0 0 0 9 1 63 
7 0 0 0 0 9 2 66 64 
6 0 0 0 0 10 1 65 
5 0 0 0 0 10 1 69 
4 0 0 0 0 5 1 69 
2 0 0 0 0 7 1 69 
4 0 0 0 0 9 1 69 
0 0 0 0 0 0 1 94 
0 0 0 0 0 0 2 71 75 
10 1 0 0 0 0 1 72 
9 8 0 0 0 0 1 73 
6 10 0 0 0 0 2 80 74 
9 7 0 0 0 0 2 79 76 
4 7 0 0 0 0 2 79 76 
7 5 0 0 0 0 1 77 
9 7 0 0 0 0 1 78 
9 10 0 0 0 0 1 81 
7 10 0 0 0 0 1 81 
5 10 0 0 0 0 1 81 
0 0 0 0 0 0 1 94 
0 0 0 0 0 0 1 83 
4 0 0 0 2 0 1 84 
3 0 0 0 6 0 1 85 
3 0 0 0 10 0 2 87 86 
4 0 0 0 7 0 2 89 88 
3 0 0 0 7 0 1 88 
3 0 0 0 9 0 2 91 90 
6 0 0 0 10 0 2 91 90 
4 0 0 0 10 0 1 92 
1 0 0 0 5 0 1 92 
5 0 0 0 9 0 1 93 
0 0 0 0 0 0 1 94 
0 0 0 0 0 0 5 95 117 139 161 183 
0 0 0 0 0 0 1 96 
9 4 0 0 1 0 2 115 97 
9 8 0 0 10 0 2 114 98 
7 5 0 0 10 0 2 113 99 
8 10 0 0 10 0 1 100 
9 6 0 0 8 0 1 101 
3 7 0 0 9 0 1 102 
8 8 0 0 5 0 2 112 103 
2 10 0 0 8 0 1 104 
1 8 0 0 5 0 2 111 105 
10 10 0 0 6 0 1 106 
1 7 0 0 8 0 1 107 
2 8 0 0 6 0 1 108 
1 10 0 0 8 0 1 109 
2 8 0 0 8 0 1 110 
5 5 0 0 7 0 1 116 
6 9 0 0 6 0 1 116 
6 5 0 0 10 0 1 116 
4 9 0 0 8 0 1 116 
9 6 0 0 8 0 1 116 
4 7 0 0 9 0 1 116 
0 0 0 0 0 0 1 255 
0 0 0 0 0 0 2 118 120 
8 0 0 3 0 2 1 119 
2 0 0 4 0 9 2 123 121 
10 0 0 9 0 7 2 123 121 
5 0 0 4 0 9 1 122 
9 0 0 6 0 9 2 126 124 
3 0 0 10 0 7 3 129 126 125 
9 0 0 10 0 7 2 129 125 
5 0 0 9 0 6 1 127 
7 0 0 8 0 7 1 127 
8 0 0 10 0 9 1 128 
2 0 0 9 0 5 1 130 
9 0 0 10 0 7 1 130 
1 0 0 7 0 10 1 131 
10 0 0 5 0 7 1 132 
1 0 0 6 0 10 1 133 
1 0 0 10 0 6 2 136 134 
8 0 0 6 0 10 1 135 
2 0 0 8 0 5 1 137 
9 0 0 6 0 9 1 137 
10 0 0 10 0 9 1 138 
0 0 0 0 0 0 1 255 
0 0 0 0 0 0 2 140 145 
6 0 3 0 0 3 1 141 
3 0 7 0 0 7 3 159 158 142 
9 0 10 0 0 10 2 147 143 
8 0 8 0 0 6 1 144 
3 0 7 0 0 9 1 146 
10 0 7 0 0 7 1 147 
6 0 5 0 0 10 1 148 
5 0 6 0 0 7 1 148 
3 0 10 0 0 10 1 149 
8 0 10 0 0 5 1 150 
1 0 10 0 0 7 1 151 
7 0 7 0 0 4 2 157 152 
2 0 7 0 0 8 1 153 
5 0 8 0 0 8 1 154 
3 0 10 0 0 7 1 155 
9 0 6 0 0 9 1 156 
10 0 9 0 0 8 1 160 
8 0 6 0 0 10 1 160 
9 0 6 0 0 10 1 160 
7 0 8 0 0 5 1 160 
0 0 0 0 0 0 1 255 
0 0 0 0 0 0 1 162 
10 2 0 3 0 0 2 165 163 
1 10 0 9 0 0 1 164 
6 7 0 9 0 0 2 167 166 
4 6 0 10 0 0 2 167 166 
3 8 0 5 0 0 1 168 
5 10 0 5 0 0 1 168 
10 10 0 5 0 0 1 169 
7 9 0 4 0 0 2 171 170 
3 10 0 6 0 0 2 175 172 
6 9 0 9 0 0 2 175 173 
7 3 0 10 0 0 1 173 
8 4 0 9 0 0 1 174 
9 9 0 8 0 0 2 177 176 
10 5 0 10 0 0 2 177 176 
5 8 0 4 0 0 1 178 
1 10 0 10 0 0 1 178 
8 9 0 9 0 0 1 179 
2 8 0 7 0 0 1 180 
1 6 0 10 0 0 1 181 
2 7 0 8 0 0 1 182 
0 0 0 0 0 0 1 255 
0 0 0 0 0 0 3 184 187 191 
3 0 0 0 0 6 1 185 
10 0 0 0 0 7 1 186 
1 0 0 0 0 3 2 193 188 
6 0 0 0 0 9 2 193 190 
8 0 0 0 0 5 1 189 
4 0 0 0 0 7 1 190 
2 0 0 0 0 9 1 192 
10 0 0 0 0 10 1 192 
7 0 0 0 0 9 1 194 
4 0 0 0 0 10 1 194 
0 0 0 0 0 0 5 195 207 219 231 243 
0 0 0 0 0 0 2 196 199 
7 0 4 0 0 0 1 197 
5 0 5 0 0 0 1 198 
5 0 5 0 0 0 3 205 204 200 
7 0 7 0 0 0 2 204 201 
5 0 10 0 0 0 1 201 
7 0 10 0 0 0 1 202 
7 0 5 0 0 0 1 203 
6 0 9 0 0 0 1 206 
7 0 10 0 0 0 1 206 
1 0 10 0 0 0 1 206 
0 0 0 0 0 0 1 255 
0 0 0 0 0 0 1 208 
5 5 0 0 0 0 2 214 209 
1 6 0 0 0 0 1 210 
4 8 0 0 0 0 2 216 211 
6 5 0 0 0 0 1 212 
1 10 0 0 0 0 1 213 
7 10 0 0 0 0 1 215 
10 6 0 0 0 0 1 217 
6 9 0 0 0 0 1 218 
1 6 0 0 0 0 1 218 
6 10 0 0 0 0 1 218 
0 0 0 0 0 0 1 255 
0 0 0 0 0 0 3 220 222 225 
2 0 0 2 0 0 2 229 221 
9 0 0 7 0 0 1 223 
8 0 0 4 0 0 2 229 226 
8 0 0 8 0 0 1 224 
3 0 0 10 0 0 1 226 
4 0 0 9 0 0 1 226 
10 0 0 10 0 0 1 227 
10 0 0 5 0 0 1 228 
3 0 0 10 0 0 1 230 
6 0 0 10 0 0 1 230 
0 0 0 0 0 0 1 255 
0 0 0 0 0 0 2 232 233 
8 5 0 0 0 0 3 237 236 234 
5 2 0 0 0 0 3 237 236 235 
7 10 0 0 0 0 1 235 
10 4 0 0 0 0 1 238 
9 10 0 0 0 0 1 238 
9 10 0 0 0 0 1 238 
6 10 0 0 0 0 1 239 
3 7 0 0 0 0 1 240 
2 9 0 0 0 0 1 241 
1 8 0 0 0 0 1 242 
0 0 0 0 0 0 1 255 
0 0 0 0 0 0 1 244 
6 0 0 0 0 7 2 248 245 
3 0 0 0 0 5 1 246 
5 0 0 0 0 9 2 251 247 
10 0 0 0 0 8 1 249 
9 0 0 0 0 10 1 249 
6 0 0 0 0 6 1 250 
1 0 0 0 0 8 2 253 252 
6 0 0 0 0 6 1 252 
10 0 0 0 0 6 1 254 
8 0 0 0 0 10 1 254 
0 0 0 0 0 0 1 255 
0 0 0 0 0 0 4 256 268 280 292 
0 0 0 0 0 0 2 257 259 
7 0 0 0 1 0 1 258 
3 0 0 0 10 0 2 262 260 
1 0 0 0 9 0 2 262 260 
1 0 0 0 8 0 1 261 
4 0 0 0 5 0 2 266 263 
6 0 0 0 9 0 1 263 
5 0 0 0 8 0 1 264 
10 0 0 0 8 0 1 265 
1 0 0 0 8 0 1 267 
9 0 0 0 9 0 1 267 
0 0 0 0 0 0 1 304 
0 0 0 0 0 0 2 269 270 
2 0 0 0 3 0 2 272 271 
4 0 0 0 3 0 2 272 271 
10 0 0 0 9 0 2 278 273 
2 0 0 0 9 0 1 273 
9 0 0 0 6 0 1 274 
2 0 0 0 10 0 1 275 
4 0 0 0 6 0 1 276 
5 0 0 0 10 0 1 277 
5 0 0 0 9 0 1 279 
3 0 0 0 10 0 1 279 
0 0 0 0 0 0 1 304 
0 0 0 0 0 0 1 281 
3 0 4 0 0 0 2 285 282 
9 0 9 0 0 0 2 290 283 
6 0 8 0 0 0 1 284 
9 0 8 0 0 0 1 286 
2 0 8 0 0 0 1 286 
1 0 7 0 0 0 1 287 
8 0 6 0 0 0 2 289 288 
7 0 10 0 0 0 1 291 
4 0 7 0 0 0 1 291 
6 0 8 0 0 0 1 291 
0 0 0 0 0 0 1 304 
0 0 0 0 0 0 1 293 
10 0 0 2 0 0 2 296 294 
4 0 0 7 0 0 1 295 
5 0 0 9 0 0 2 302 297 
6 0 0 9 0 0 3 302 301 299 
7 0 0 8 0 0 2 301 298 
4 0 0 5 0 0 1 299 
3 0 0 5 0 0 1 300 
7 0 0 10 0 0 1 303 
4 0 0 10 0 0 1 303 
5 0 0 10 0 0 1 303 
0 0 0 0 0 0 1 304 
0 0 0 0 0 0 0 
